c description: Subset cardinality formula for fast_gnp_random_graph(6,8,0.6)
c generator: CNFgen (0.9.0)
c copyright: (C) 2012-2020 Massimo Lauria <massimo.lauria@uniroma1.it>
c url: https://massimolauria.net/cnfgen
c
p cnf 33 146
1 2 0
1 3 0
2 3 0
4 5 6 0
4 5 7 0
4 5 8 0
4 6 7 0
4 6 8 0
4 7 8 0
5 6 7 0
5 6 8 0
5 7 8 0
6 7 8 0
9 10 11 12 0
9 10 11 13 0
9 10 11 14 0
9 10 12 13 0
9 10 12 14 0
9 10 13 14 0
9 11 12 13 0
9 11 12 14 0
9 11 13 14 0
9 12 13 14 0
10 11 12 13 0
10 11 12 14 0
10 11 13 14 0
10 12 13 14 0
11 12 13 14 0
15 16 17 18 0
15 16 17 19 0
15 16 17 20 0
15 16 17 21 0
15 16 18 19 0
15 16 18 20 0
15 16 18 21 0
15 16 19 20 0
15 16 19 21 0
15 16 20 21 0
15 17 18 19 0
15 17 18 20 0
15 17 18 21 0
15 17 19 20 0
15 17 19 21 0
15 17 20 21 0
15 18 19 20 0
15 18 19 21 0
15 18 20 21 0
15 19 20 21 0
16 17 18 19 0
16 17 18 20 0
16 17 18 21 0
16 17 19 20 0
16 17 19 21 0
16 17 20 21 0
16 18 19 20 0
16 18 19 21 0
16 18 20 21 0
16 19 20 21 0
17 18 19 20 0
17 18 19 21 0
17 18 20 21 0
17 19 20 21 0
18 19 20 21 0
22 23 24 25 0
22 23 24 26 0
22 23 24 27 0
22 23 25 26 0
22 23 25 27 0
22 23 26 27 0
22 24 25 26 0
22 24 25 27 0
22 24 26 27 0
22 25 26 27 0
23 24 25 26 0
23 24 25 27 0
23 24 26 27 0
23 25 26 27 0
24 25 26 27 0
28 29 30 31 0
28 29 30 32 0
28 29 30 33 0
28 29 31 32 0
28 29 31 33 0
28 29 32 33 0
28 30 31 32 0
28 30 31 33 0
28 30 32 33 0
28 31 32 33 0
29 30 31 32 0
29 30 31 33 0
29 30 32 33 0
29 31 32 33 0
30 31 32 33 0
-15 -22 0
-15 -28 0
-22 -28 0
-4 -9 -16 0
-4 -9 -23 0
-4 -9 -29 0
-4 -16 -23 0
-4 -16 -29 0
-4 -23 -29 0
-9 -16 -23 0
-9 -16 -29 0
-9 -23 -29 0
-16 -23 -29 0
-1 -5 -17 0
-1 -5 -24 0
-1 -5 -30 0
-1 -17 -24 0
-1 -17 -30 0
-1 -24 -30 0
-5 -17 -24 0
-5 -17 -30 0
-5 -24 -30 0
-17 -24 -30 0
-6 -10 -18 0
-6 -10 -25 0
-6 -10 -31 0
-6 -18 -25 0
-6 -18 -31 0
-6 -25 -31 0
-10 -18 -25 0
-10 -18 -31 0
-10 -25 -31 0
-18 -25 -31 0
-2 -11 0
-2 -32 0
-11 -32 0
-3 -7 -12 0
-3 -7 -19 0
-3 -7 -26 0
-3 -12 -19 0
-3 -12 -26 0
-3 -19 -26 0
-7 -12 -19 0
-7 -12 -26 0
-7 -19 -26 0
-12 -19 -26 0
-13 -20 -27 0
-13 -20 -33 0
-13 -27 -33 0
-20 -27 -33 0
-8 -14 0
-8 -21 0
-14 -21 0